
Gurobi 9.5.0 (win64, Python) logging started Wed Aug  9 10:05:57 2023

Set parameter LogFile to value "data/small_training_set/problems/problem_0001_gurobi.log_gurobi.log"
Restricted license - for non-production use only - expires 2023-10-25

Gurobi 9.5.0 (win64, Python) logging started Wed Aug  9 17:32:34 2023

Set parameter LogFile to value "data/small_training_set/problems/problem_0001_gurobi.log_gurobi.log"
Restricted license - for non-production use only - expires 2023-10-25

Gurobi 9.5.0 (win64, Python) logging started Mon Aug 28 10:26:27 2023

Set parameter LogFile to value "data/small_training_set/problems/problem_0001_gurobi.log_gurobi.log"
Restricted license - for non-production use only - expires 2023-10-25

Gurobi 9.5.0 (win64, Python) logging started Mon Aug 28 14:26:50 2023

Set parameter LogFile to value "data/small_training_set/problems/problem_0001_gurobi.log_gurobi.log"
Restricted license - for non-production use only - expires 2023-10-25
